NAME: Random_65_2
ELLAPSED_TIME_(ms): 0
TOUR_SIZE: 1729.2029
TOUR_SECTION
0
63
38
56
47
11
27
51
34
59
7
20
58
62
1
40
25
55
31
32
22
48
49
4
16
6
14
21
9
41
54
12
42
64
57
2
17
5
15
3
33
36
39
24
52
23
28
26
8
46
19
61
29
43
30
45
50
60
18
35
13
10
37
44
53
0
EOF
